(set-logic QF_S)
(declare-fun var0 () String)
(declare-fun var1 () String)
(declare-fun var2 () String)
(declare-fun var3 () String)
(declare-fun var4 () String)
(declare-fun var5 () String)
(assert (= (Concat "9$e" (Concat var0 (Concat var1 (Concat var2 (Concat var3 (Concat var4 var5)))))) (Concat (Concat var0 (Concat var1 (Concat var2 (Concat var3 (Concat var4 var5))))) "\\/5")))
(check-sat)